101 658
1 69 52 18 89 6 94 92 97 95 13 87 42 57 2 40 58 53 101 27 28 26 12 80 68 29 24 54 55 25 4 39 67 23 56 75 72 21 73 74 22 41 15 43 14 44 38 86 16 61 85 91 100 37 98 93 59 99 96 60 5 84 17 45 46 8 83 82 48 47 36 49 64 63 90 32 10 62 11 19 7 88 31 70 30 20 66 71 65 35 34 78 81 9 51 33 79 3 77 76 50 
